; Source: IsaPlanner test suite
(declare-datatypes (a)
  ((list (nil) (cons (head a) (tail (list a))))))
(declare-datatypes () ((Nat (Z) (S (p Nat)))))
(define-funs-rec
  ((par (a) (take ((x Nat) (y (list a))) (list a))))
  ((match x
     (case Z (as nil (list a)))
     (case (S z)
       (match y
         (case nil y)
         (case (cons x2 x3) (cons x2 (as (take z x3) (list a)))))))))
(define-funs-rec
  ((plus ((x Nat) (y Nat)) Nat))
  ((match x
     (case Z y)
     (case (S z) (S (plus z y))))))
(define-funs-rec
  ((par (a) (drop ((x Nat) (y (list a))) (list a))))
  ((match x
     (case Z y)
     (case (S z)
       (match y
         (case nil y)
         (case (cons x2 x3) (as (drop z x3) (list a))))))))
(assert-not
  (par (a)
    (forall ((n Nat) (m Nat) (xs (list a)))
      (= (take n (drop m xs)) (drop m (take (plus n m) xs))))))
(check-sat)
